NAME : lr209.930582.tour
COMMENT : Cost = 0_930582
COMMENT : Found by LKH [Keld Helsgaun] Fri Sep 15 17:42:02 2017
TYPE : TOUR
DIMENSION : 105
TOUR_SECTION
1
53
83
84
6
100
60
96
93
99
45
15
39
87
17
62
86
19
8
9
85
18
46
47
37
50
33
11
49
61
90
105
28
70
32
89
63
48
20
12
65
64
91
31
52
72
10
82
34
4
80
79
35
36
66
67
21
71
2
51
78
69
81
25
55
56
26
5
57
75
59
103
104
29
77
30
13
41
3
74
22
73
40
68
24
76
23
42
16
58
88
95
7
102
54
27
14
98
43
44
92
101
38
94
97
-1
EOF
